c CNF
c from Selman's wff generator
p cnf 200  1300
1.0 -87 133 0
1.0 96 -192 0
1.0 -68 23 0
1.0 13 -195 0
1.0 -88 113 0
1.0 139 124 0
1.0 21 -116 0
1.0 129 89 0
1.0 21 -10 0
1.0 2 47 0
1.0 -69 5 0
1.0 200 154 0
1.0 -66 13 0
1.0 136 -137 0
1.0 53 -89 0
1.0 -177 -160 0
1.0 -170 -16 0
1.0 62 -134 0
1.0 139 -142 0
1.0 95 -44 0
1.0 -56 -125 0
1.0 -62 -195 0
1.0 84 33 0
1.0 192 -89 0
1.0 -104 -171 0
1.0 104 170 0
1.0 -112 108 0
1.0 -152 5 0
1.0 -130 -131 0
1.0 -126 147 0
1.0 179 -200 0
1.0 -88 -127 0
1.0 -97 -62 0
1.0 31 -53 0
1.0 -161 -21 0
1.0 -25 -116 0
1.0 -46 -118 0
1.0 -65 50 0
1.0 -49 -14 0
1.0 144 128 0
1.0 85 -71 0
1.0 112 -178 0
1.0 -127 10 0
1.0 129 110 0
1.0 -55 -58 0
1.0 -38 155 0
1.0 168 -90 0
1.0 -17 -132 0
1.0 3 -152 0
1.0 130 136 0
1.0 146 3 0
1.0 -113 -184 0
1.0 42 32 0
1.0 -186 -23 0
1.0 112 -26 0
1.0 158 -181 0
1.0 133 68 0
1.0 -4 -120 0
1.0 122 15 0
1.0 198 144 0
1.0 -176 -71 0
1.0 -94 84 0
1.0 -110 179 0
1.0 160 164 0
1.0 -32 101 0
1.0 -20 -71 0
1.0 -85 8 0
1.0 -151 -175 0
1.0 46 -41 0
1.0 -124 2 0
1.0 -181 -77 0
1.0 40 127 0
1.0 -27 185 0
1.0 -56 -90 0
1.0 97 162 0
1.0 -137 -145 0
1.0 -185 -61 0
1.0 -63 64 0
1.0 -140 -42 0
1.0 169 -14 0
1.0 199 156 0
1.0 -45 -29 0
1.0 -191 -18 0
1.0 -163 109 0
1.0 29 56 0
1.0 197 128 0
1.0 110 -12 0
1.0 -62 1 0
1.0 43 177 0
1.0 172 -4 0
1.0 -193 -188 0
1.0 -97 -99 0
1.0 154 -64 0
1.0 -191 -50 0
1.0 61 -194 0
1.0 -195 146 0
1.0 -123 1 0
1.0 4 -169 0
1.0 -157 34 0
1.0 -132 128 0
1.0 192 -197 0
1.0 47 -22 0
1.0 16 107 0
1.0 53 -169 0
1.0 169 -155 0
1.0 -123 151 0
1.0 -184 -117 0
1.0 -45 112 0
1.0 109 -34 0
1.0 56 101 0
1.0 7 92 0
1.0 60 129 0
1.0 -83 101 0
1.0 51 166 0
1.0 -83 -17 0
1.0 -129 149 0
1.0 -183 181 0
1.0 -81 54 0
1.0 -146 192 0
1.0 120 179 0
1.0 80 -33 0
1.0 -198 91 0
1.0 108 114 0
1.0 62 169 0
1.0 149 65 0
1.0 -119 193 0
1.0 184 -61 0
1.0 -40 -102 0
1.0 135 -111 0
1.0 2 -13 0
1.0 -126 -18 0
1.0 187 -18 0
1.0 -83 115 0
1.0 107 80 0
1.0 -141 -133 0
1.0 35 -97 0
1.0 -8 147 0
1.0 -159 113 0
1.0 131 -63 0
1.0 80 -103 0
1.0 -17 163 0
1.0 26 -14 0
1.0 -7 -17 0
1.0 -115 163 0
1.0 63 -120 0
1.0 -37 104 0
1.0 -174 22 0
1.0 74 141 0
1.0 -104 -16 0
1.0 30 23 0
1.0 -40 -82 0
1.0 44 -51 0
1.0 171 35 0
1.0 -139 -186 0
1.0 -7 86 0
1.0 -27 -81 0
1.0 97 -155 0
1.0 -178 147 0
1.0 -28 103 0
1.0 -153 -186 0
1.0 -21 -57 0
1.0 42 38 0
1.0 -123 -59 0
1.0 140 97 0
1.0 -52 138 0
1.0 84 -124 0
1.0 -26 -16 0
1.0 -2 157 0
1.0 -13 34 0
1.0 -71 -52 0
1.0 -111 30 0
1.0 126 -22 0
1.0 159 48 0
1.0 -172 -50 0
1.0 -66 133 0
1.0 90 -79 0
1.0 -113 -69 0
1.0 -121 58 0
1.0 87 120 0
1.0 -141 169 0
1.0 -17 -195 0
1.0 -45 -94 0
1.0 -27 -162 0
1.0 41 -64 0
1.0 -133 174 0
1.0 32 -112 0
1.0 -31 -168 0
1.0 136 -121 0
1.0 -116 -13 0
1.0 107 -125 0
1.0 87 -46 0
1.0 110 67 0
1.0 40 16 0
1.0 -127 -182 0
1.0 -149 121 0
1.0 41 -1 0
1.0 -13 -176 0
1.0 101 -187 0
1.0 -33 -101 0
1.0 -167 195 0
1.0 10 -81 0
1.0 63 67 0
1.0 187 23 0
1.0 -24 132 0
1.0 -107 100 0
1.0 -86 -7 0
1.0 108 109 0
1.0 103 -45 0
1.0 125 -159 0
1.0 -25 143 0
1.0 166 -94 0
1.0 25 -22 0
1.0 -121 179 0
1.0 -186 133 0
1.0 -42 -183 0
1.0 28 -49 0
1.0 -7 104 0
1.0 46 138 0
1.0 -31 82 0
1.0 -103 24 0
1.0 3 -127 0
1.0 59 -154 0
1.0 137 -49 0
1.0 -97 -100 0
1.0 -4 55 0
1.0 192 177 0
1.0 58 -59 0
1.0 -83 66 0
1.0 192 13 0
1.0 -167 -154 0
1.0 2 195 0
1.0 94 181 0
1.0 -35 135 0
1.0 111 -6 0
1.0 -65 -128 0
1.0 194 -112 0
1.0 125 104 0
1.0 -57 187 0
1.0 -181 58 0
1.0 -39 158 0
1.0 93 118 0
1.0 -124 -149 0
1.0 -76 100 0
1.0 11 -166 0
1.0 69 -90 0
1.0 -76 18 0
1.0 -75 -142 0
1.0 -100 -104 0
1.0 -21 -85 0
1.0 -33 -168 0
1.0 67 178 0
1.0 -31 -13 0
1.0 -38 27 0
1.0 -11 -52 0
1.0 184 42 0
1.0 -28 -43 0
1.0 -38 51 0
1.0 183 54 0
1.0 31 150 0
1.0 -162 -182 0
1.0 8 176 0
1.0 -28 182 0
1.0 24 21 0
1.0 -63 -5 0
1.0 -56 108 0
1.0 161 -177 0
1.0 126 167 0
1.0 148 -33 0
1.0 -9 139 0
1.0 121 -143 0
1.0 -163 146 0
1.0 -151 157 0
1.0 65 31 0
1.0 8 -130 0
1.0 96 69 0
1.0 -102 -107 0
1.0 -45 -172 0
1.0 -114 194 0
1.0 -139 103 0
1.0 60 -27 0
1.0 -57 138 0
1.0 -67 -166 0
1.0 35 -18 0
1.0 125 -5 0
1.0 -176 191 0
1.0 -185 -43 0
1.0 146 67 0
1.0 -93 -107 0
1.0 45 -80 0
1.0 46 11 0
1.0 29 -80 0
1.0 -84 60 0
1.0 -50 57 0
1.0 -100 114 0
1.0 180 169 0
1.0 76 -181 0
1.0 61 -35 0
1.0 -45 104 0
1.0 184 199 0
1.0 -58 -149 0
1.0 -5 -74 0
1.0 -187 -98 0
1.0 67 -1 0
1.0 182 59 0
1.0 -93 -92 0
1.0 196 -132 0
1.0 130 -38 0
1.0 186 -172 0
1.0 45 36 0
1.0 -134 44 0
1.0 -45 36 0
1.0 95 -5 0
1.0 -97 14 0
1.0 145 136 0
1.0 174 -117 0
1.0 -88 -157 0
1.0 -193 -44 0
1.0 -88 -162 0
1.0 -198 69 0
1.0 73 -24 0
1.0 38 -4 0
1.0 140 -132 0
1.0 48 -118 0
1.0 74 21 0
1.0 -65 -30 0
1.0 192 -118 0
1.0 187 40 0
1.0 64 -159 0
1.0 163 -89 0
1.0 20 138 0
1.0 55 -87 0
1.0 -108 -68 0
1.0 -98 186 0
1.0 103 6 0
1.0 -46 -158 0
1.0 117 177 0
1.0 -65 92 0
1.0 -30 196 0
1.0 83 -154 0
1.0 -21 -7 0
1.0 193 84 0
1.0 -90 -86 0
1.0 44 -133 0
1.0 109 -56 0
1.0 148 -20 0
1.0 16 10 0
1.0 163 -75 0
1.0 -82 49 0
1.0 -133 111 0
1.0 -196 154 0
1.0 -87 -3 0
1.0 -58 37 0
1.0 -57 27 0
1.0 -37 -43 0
1.0 -117 -57 0
1.0 105 86 0
1.0 196 -41 0
1.0 194 16 0
1.0 19 29 0
1.0 66 -44 0
1.0 -71 -64 0
1.0 -107 162 0
1.0 18 -89 0
1.0 -174 -93 0
1.0 -134 -16 0
1.0 32 190 0
1.0 -18 82 0
1.0 126 -9 0
1.0 -72 -198 0
1.0 159 -8 0
1.0 96 22 0
1.0 115 56 0
1.0 -72 -198 0
1.0 -187 182 0
1.0 63 -81 0
1.0 -89 -93 0
1.0 -90 85 0
1.0 93 -139 0
1.0 161 123 0
1.0 -178 94 0
1.0 -92 97 0
1.0 78 -106 0
1.0 -187 172 0
1.0 64 -112 0
1.0 197 174 0
1.0 113 26 0
1.0 -148 -133 0
1.0 -27 -71 0
1.0 -168 127 0
1.0 -33 79 0
1.0 50 -114 0
1.0 26 130 0
1.0 -104 68 0
1.0 93 187 0
1.0 -119 -39 0
1.0 110 140 0
1.0 -67 58 0
1.0 -137 -108 0
1.0 21 12 0
1.0 141 166 0
1.0 34 -179 0
1.0 -165 150 0
1.0 188 132 0
1.0 -72 -91 0
1.0 149 95 0
1.0 2 155 0
1.0 167 -171 0
1.0 -136 -137 0
1.0 115 11 0
1.0 -161 -62 0
1.0 194 190 0
1.0 80 18 0
1.0 -113 -41 0
1.0 -195 -184 0
1.0 154 5 0
1.0 142 19 0
1.0 -30 -154 0
1.0 -16 98 0
1.0 88 -182 0
1.0 -199 -77 0
1.0 117 -109 0
1.0 92 161 0
1.0 -166 -141 0
1.0 -159 -195 0
1.0 -148 -100 0
1.0 -198 115 0
1.0 97 45 0
1.0 122 49 0
1.0 -158 31 0
1.0 192 -22 0
1.0 162 -30 0
1.0 -24 -29 0
1.0 -129 -86 0
1.0 200 106 0
1.0 -151 64 0
1.0 -113 198 0
1.0 -29 59 0
1.0 -80 13 0
1.0 43 162 0
1.0 69 -38 0
1.0 -172 126 0
1.0 137 51 0
1.0 -42 100 0
1.0 10 184 0
1.0 -102 -88 0
1.0 -66 -189 0
1.0 -150 23 0
1.0 -60 180 0
1.0 -106 127 0
1.0 178 136 0
1.0 36 157 0
1.0 -140 125 0
1.0 -12 60 0
1.0 -48 -112 0
1.0 135 -165 0
1.0 145 188 0
1.0 115 132 0
1.0 -68 -135 0
1.0 -92 168 0
1.0 93 -59 0
1.0 -118 -28 0
1.0 -140 166 0
1.0 130 178 0
1.0 -166 92 0
1.0 -23 16 0
1.0 -151 83 0
1.0 50 -141 0
1.0 200 -144 0
1.0 171 -27 0
1.0 -193 -45 0
1.0 -22 -51 0
1.0 142 -120 0
1.0 135 39 0
1.0 -121 -49 0
1.0 -189 -198 0
1.0 -142 -160 0
1.0 -187 22 0
1.0 6 101 0
1.0 -97 40 0
1.0 -107 -161 0
1.0 15 37 0
1.0 163 -37 0
1.0 -150 -40 0
1.0 144 -14 0
1.0 -36 74 0
1.0 175 15 0
1.0 54 -93 0
1.0 -53 40 0
1.0 -77 171 0
1.0 -8 -182 0
1.0 21 -102 0
1.0 116 -161 0
1.0 -34 57 0
1.0 71 -89 0
1.0 181 168 0
1.0 7 190 0
1.0 -161 -31 0
1.0 -13 122 0
1.0 -24 -189 0
1.0 149 -93 0
1.0 -150 83 0
1.0 -172 -70 0
1.0 -37 30 0
1.0 -19 -84 0
1.0 -115 -49 0
1.0 -171 -70 0
1.0 -59 157 0
1.0 -50 -25 0
1.0 108 180 0
1.0 50 164 0
1.0 -193 14 0
1.0 -98 56 0
1.0 -104 136 0
1.0 6 98 0
1.0 55 -2 0
1.0 -27 -60 0
1.0 40 122 0
1.0 -86 42 0
1.0 56 -104 0
1.0 -159 80 0
1.0 -15 104 0
1.0 1 5 0
1.0 -7 154 0
1.0 -14 63 0
1.0 -185 179 0
1.0 -21 117 0
1.0 20 -37 0
1.0 116 -195 0
1.0 -99 177 0
1.0 -182 -35 0
1.0 188 114 0
1.0 176 -188 0
1.0 167 -197 0
1.0 113 -177 0
1.0 -13 -94 0
1.0 89 -150 0
1.0 127 -10 0
1.0 44 41 0
1.0 154 -117 0
1.0 104 88 0
1.0 85 -119 0
1.0 -96 -123 0
1.0 16 -39 0
1.0 189 -96 0
1.0 105 -178 0
1.0 -18 -117 0
1.0 -34 -14 0
1.0 102 -191 0
1.0 -109 66 0
1.0 -188 111 0
1.0 -149 109 0
1.0 -200 -52 0
1.0 -74 -98 0
1.0 78 166 0
1.0 -66 161 0
1.0 -169 179 0
1.0 160 170 0
1.0 82 26 0
1.0 134 -156 0
1.0 -8 22 0
1.0 120 -104 0
1.0 69 -95 0
1.0 -55 82 0
1.0 60 156 0
1.0 126 79 0
1.0 105 109 0
1.0 -65 110 0
1.0 -132 81 0
1.0 185 24 0
1.0 -118 -137 0
1.0 -19 180 0
1.0 136 54 0
1.0 133 187 0
1.0 96 -103 0
1.0 13 -46 0
1.0 -127 -185 0
1.0 -9 -43 0
1.0 179 -153 0
1.0 132 95 0
1.0 -148 172 0
1.0 -159 194 0
1.0 97 -192 0
1.0 38 -46 0
1.0 30 47 0
1.0 -89 40 0
1.0 193 -63 0
1.0 -158 -140 0
1.0 -111 119 0
1.0 -113 102 0
1.0 -93 -136 0
1.0 182 170 0
1.0 16 -169 0
1.0 -9 13 0
1.0 -76 36 0
1.0 -175 118 0
1.0 -37 -124 0
1.0 -25 -78 0
1.0 14 -77 0
1.0 46 142 0
1.0 -111 -54 0
1.0 -67 -138 0
1.0 -174 -47 0
1.0 165 112 0
1.0 -35 190 0
1.0 -67 110 0
1.0 186 25 0
1.0 167 80 0
1.0 -133 -60 0
1.0 -198 -117 0
1.0 -163 -114 0
1.0 -26 155 0
1.0 -144 80 0
1.0 189 -97 0
1.0 121 164 0
1.0 -43 -98 0
1.0 -158 -160 0
1.0 -76 115 0
1.0 -28 45 0
1.0 -200 -95 0
1.0 -175 -32 0
1.0 -128 43 0
1.0 -7 141 0
1.0 39 -100 0
1.0 -59 -199 0
1.0 -113 -76 0
1.0 -120 -139 0
1.0 34 105 0
1.0 -137 16 0
1.0 -58 106 0
1.0 -47 48 0
1.0 148 137 0
1.0 -135 32 0
1.0 -107 112 0
1.0 -50 180 0
1.0 84 8 0
1.0 23 60 0
1.0 -166 197 0
1.0 45 -58 0
1.0 -194 -179 0
1.0 -11 -136 0
1.0 -48 163 0
1.0 -142 88 0
1.0 96 -70 0
1.0 -129 130 0
1.0 -126 -144 0
1.0 -1 -5 0
1.0 -184 -159 0
1.0 -95 -99 0
1.0 61 53 0
1.0 140 19 0
1.0 -88 73 0
1.0 -2 -153 0
1.0 96 18 0
1.0 22 60 0
1.0 -19 -15 0
1.0 113 -109 0
1.0 -161 93 0
1.0 -111 -3 0
1.0 75 89 0
1.0 41 -126 0
1.0 143 -103 0
1.0 -163 -125 0
1.0 139 168 0
1.0 76 147 0
1.0 -39 -1 0
1.0 -3 71 0
1.0 -159 -162 0
1.0 -88 159 0
1.0 -61 171 0
1.0 95 164 0
1.0 131 96 0
1.0 42 111 0
1.0 111 -178 0
1.0 -48 177 0
1.0 139 146 0
1.0 104 -144 0
1.0 -114 49 0
1.0 12 -190 0
1.0 -86 -127 0
1.0 38 -191 0
1.0 169 36 0
1.0 12 -54 0
1.0 -200 -31 0
1.0 174 30 0
1.0 78 55 0
1.0 45 -138 0
1.0 65 -182 0
1.0 172 -63 0
1.0 -98 -112 0
1.0 166 -180 0
1.0 10 -33 0
1.0 63 -136 0
1.0 191 166 0
1.0 -103 -63 0
1.0 44 21 0
1.0 -83 -119 0
1.0 30 -112 0
1.0 -92 -148 0
1.0 181 28 0
1.0 -164 -155 0
1.0 -121 13 0
1.0 -75 -153 0
1.0 -174 59 0
1.0 177 89 0
1.0 1 126 0
1.0 -74 163 0
1.0 191 -78 0
1.0 -32 -79 0
1.0 -92 -96 0
1.0 49 167 0
1.0 25 17 0
1.0 106 -116 0
1.0 -42 -11 0
1.0 -174 -190 0
1.0 -67 65 0
1.0 143 25 0
1.0 -120 -27 0
1.0 -193 84 0
1.0 101 68 0
1.0 -183 28 0
1.0 -39 108 0
1.0 -98 -107 0
1.0 171 -93 0
1.0 -117 114 0
1.0 141 -147 0
1.0 -31 -193 0
1.0 -60 171 0
1.0 199 47 0
1.0 154 4 0
1.0 111 25 0
1.0 -118 78 0
1.0 192 -142 0
1.0 88 -75 0
1.0 67 -16 0
1.0 -186 -185 0
1.0 31 -35 0
1.0 39 -70 0
1.0 95 51 0
1.0 129 -23 0
1.0 164 119 0
1.0 -194 118 0
1.0 -134 -19 0
1.0 -3 155 0
1.0 190 124 0
1.0 -194 54 0
1.0 -104 5 0
1.0 -28 -149 0
1.0 68 6 0
1.0 -124 13 0
1.0 -32 107 0
1.0 62 79 0
1.0 2 -85 0
1.0 138 54 0
1.0 58 185 0
1.0 134 28 0
1.0 33 -119 0
1.0 131 -182 0
1.0 -88 -188 0
1.0 -66 63 0
1.0 147 78 0
1.0 -131 -147 0
1.0 131 199 0
1.0 27 149 0
1.0 67 -125 0
1.0 -107 -27 0
1.0 -14 156 0
1.0 -18 -143 0
1.0 20 -10 0
1.0 -157 174 0
1.0 -173 -11 0
1.0 159 15 0
1.0 140 72 0
1.0 98 -182 0
1.0 -137 -183 0
1.0 -125 -139 0
1.0 149 -167 0
1.0 -140 -33 0
1.0 -43 142 0
1.0 156 166 0
1.0 -37 -48 0
1.0 30 -180 0
1.0 -162 38 0
1.0 176 -39 0
1.0 5 -125 0
1.0 157 -19 0
1.0 160 -165 0
1.0 131 -26 0
1.0 -74 -152 0
1.0 131 148 0
1.0 -185 -190 0
1.0 29 10 0
1.0 -135 112 0
1.0 131 33 0
1.0 197 -91 0
1.0 116 -16 0
1.0 168 196 0
1.0 -144 -162 0
1.0 152 -169 0
1.0 179 -173 0
1.0 85 190 0
1.0 -22 94 0
1.0 -184 110 0
1.0 126 39 0
1.0 -35 -182 0
1.0 -143 181 0
1.0 150 -195 0
1.0 168 87 0
1.0 77 44 0
1.0 -137 -170 0
1.0 80 63 0
1.0 102 -109 0
1.0 -90 89 0
1.0 -70 20 0
1.0 -15 -1 0
1.0 88 -188 0
1.0 31 -98 0
1.0 68 -181 0
1.0 -43 -107 0
1.0 15 -51 0
1.0 -139 194 0
1.0 13 64 0
1.0 65 -175 0
1.0 -162 -42 0
1.0 -140 181 0
1.0 -161 45 0
1.0 -151 -107 0
1.0 157 27 0
1.0 -20 7 0
1.0 71 -132 0
1.0 107 69 0
1.0 110 6 0
1.0 187 -18 0
1.0 -63 10 0
1.0 -117 99 0
1.0 -125 -49 0
1.0 -56 -73 0
1.0 4 -37 0
1.0 -105 151 0
1.0 156 -38 0
1.0 55 -119 0
1.0 -129 41 0
1.0 -139 110 0
1.0 158 86 0
1.0 -159 -184 0
1.0 20 -2 0
1.0 -152 -50 0
1.0 87 -2 0
1.0 120 140 0
1.0 180 -190 0
1.0 -99 11 0
1.0 97 189 0
1.0 173 -9 0
1.0 -10 -89 0
1.0 139 54 0
1.0 -56 -119 0
1.0 58 26 0
1.0 -15 -117 0
1.0 -128 137 0
1.0 126 40 0
1.0 49 94 0
1.0 183 -5 0
1.0 -59 -89 0
1.0 7 112 0
1.0 -138 -112 0
1.0 29 -57 0
1.0 -194 -37 0
1.0 76 -57 0
1.0 -151 -106 0
1.0 110 -4 0
1.0 92 199 0
1.0 -111 171 0
1.0 83 -65 0
1.0 122 -67 0
1.0 103 -45 0
1.0 -102 51 0
1.0 -156 87 0
1.0 90 -37 0
1.0 36 -116 0
1.0 -86 -42 0
1.0 107 194 0
1.0 -60 -145 0
1.0 -190 177 0
1.0 -27 -44 0
1.0 130 126 0
1.0 -163 -81 0
1.0 -196 79 0
1.0 121 137 0
1.0 131 -127 0
1.0 -72 196 0
1.0 -173 -94 0
1.0 -137 93 0
1.0 18 -28 0
1.0 -108 -85 0
1.0 -163 121 0
1.0 -57 -33 0
1.0 -160 164 0
1.0 160 -130 0
1.0 -23 -42 0
1.0 134 -111 0
1.0 -138 111 0
1.0 -195 -109 0
1.0 29 131 0
1.0 163 -151 0
1.0 -115 49 0
1.0 178 44 0
1.0 -85 136 0
1.0 -47 -186 0
1.0 96 102 0
1.0 10 176 0
1.0 -106 90 0
1.0 -41 -195 0
1.0 43 143 0
1.0 186 35 0
1.0 171 181 0
1.0 166 60 0
1.0 -162 -29 0
1.0 4 -200 0
1.0 -90 -132 0
1.0 127 -169 0
1.0 -111 113 0
1.0 -148 -11 0
1.0 -192 -57 0
1.0 117 135 0
1.0 163 -171 0
1.0 171 57 0
1.0 -189 -53 0
1.0 21 -73 0
1.0 185 -73 0
1.0 84 195 0
1.0 52 -184 0
1.0 118 51 0
1.0 21 -93 0
1.0 150 -121 0
1.0 173 -39 0
1.0 -111 135 0
1.0 8 152 0
1.0 -147 -76 0
1.0 -59 -198 0
1.0 49 10 0
1.0 103 101 0
1.0 -22 -110 0
1.0 -149 40 0
1.0 -175 -111 0
1.0 63 181 0
1.0 56 -40 0
1.0 38 172 0
1.0 -181 145 0
1.0 -46 15 0
1.0 125 123 0
1.0 -162 -48 0
1.0 -159 86 0
1.0 66 -193 0
1.0 32 37 0
1.0 -8 -125 0
1.0 70 -111 0
1.0 -126 4 0
1.0 -126 44 0
1.0 92 56 0
1.0 142 144 0
1.0 -136 -101 0
1.0 138 -164 0
1.0 -89 -193 0
1.0 103 3 0
1.0 7 -57 0
1.0 101 -2 0
1.0 57 -45 0
1.0 189 -113 0
1.0 14 -133 0
1.0 97 -129 0
1.0 -122 27 0
1.0 29 18 0
1.0 -75 -130 0
1.0 -131 -188 0
1.0 -33 8 0
1.0 -121 -190 0
1.0 122 36 0
1.0 164 179 0
1.0 -5 148 0
1.0 165 161 0
1.0 91 37 0
1.0 24 181 0
1.0 188 -194 0
1.0 183 -21 0
1.0 -56 125 0
1.0 -104 -127 0
1.0 -74 14 0
1.0 175 12 0
1.0 48 92 0
1.0 -72 96 0
1.0 -89 4 0
1.0 -24 9 0
1.0 134 99 0
1.0 -26 4 0
1.0 -17 -87 0
1.0 98 -16 0
1.0 108 -143 0
1.0 39 -145 0
1.0 -148 -6 0
1.0 14 -175 0
1.0 -74 150 0
1.0 -154 -128 0
1.0 -15 -137 0
1.0 153 18 0
1.0 161 -74 0
1.0 -18 -78 0
1.0 -83 125 0
1.0 100 -189 0
1.0 139 26 0
1.0 154 -71 0
1.0 8 -23 0
1.0 41 137 0
1.0 -11 60 0
1.0 -138 125 0
1.0 -49 -131 0
1.0 -119 160 0
1.0 -186 -193 0
1.0 -64 11 0
1.0 34 186 0
1.0 122 -53 0
1.0 -113 73 0
1.0 197 153 0
1.0 -84 186 0
1.0 145 -114 0
1.0 107 -9 0
1.0 20 175 0
1.0 -160 74 0
1.0 127 200 0
1.0 72 173 0
1.0 -126 158 0
1.0 143 108 0
1.0 21 -72 0
1.0 81 85 0
1.0 -59 139 0
1.0 12 -78 0
1.0 -77 -113 0
1.0 86 65 0
1.0 22 -132 0
1.0 39 33 0
1.0 -105 -68 0
1.0 153 85 0
1.0 23 36 0
1.0 -114 -129 0
1.0 -41 -149 0
1.0 -14 157 0
1.0 -89 -159 0
1.0 -192 52 0
1.0 120 175 0
1.0 59 166 0
1.0 -2 -111 0
1.0 -39 88 0
1.0 37 45 0
1.0 2 145 0
1.0 104 85 0
1.0 -136 5 0
1.0 -179 72 0
1.0 -38 9 0
1.0 -119 -34 0
1.0 122 -59 0
1.0 104 -45 0
1.0 -189 94 0
1.0 -178 -13 0
1.0 -18 -177 0
1.0 49 95 0
1.0 -103 152 0
1.0 -186 -78 0
1.0 137 18 0
1.0 -62 74 0
1.0 -167 -140 0
1.0 153 -128 0
1.0 -104 -27 0
1.0 121 200 0
1.0 152 -164 0
1.0 42 -25 0
1.0 42 -110 0
1.0 -183 -162 0
1.0 101 94 0
1.0 21 -152 0
1.0 178 189 0
1.0 -188 -117 0
1.0 80 -166 0
1.0 191 121 0
1.0 -30 115 0
1.0 -77 -89 0
1.0 183 55 0
1.0 -7 -52 0
1.0 41 6 0
1.0 -123 3 0
1.0 -169 -43 0
1.0 -163 -21 0
1.0 136 126 0
1.0 -14 -166 0
1.0 -21 19 0
1.0 71 -127 0
1.0 -133 92 0
1.0 94 105 0
1.0 147 -179 0
1.0 -200 -11 0
1.0 -137 -105 0
1.0 -71 136 0
1.0 -154 146 0
1.0 -73 129 0
1.0 20 -72 0
1.0 -176 -116 0
1.0 95 195 0
1.0 6 -132 0
1.0 37 -177 0
1.0 -112 39 0
1.0 185 117 0
1.0 45 23 0
1.0 -95 121 0
1.0 -36 -152 0
1.0 147 -23 0
1.0 155 -54 0
1.0 30 -187 0
1.0 26 96 0
1.0 12 95 0
1.0 -118 127 0
1.0 48 98 0
1.0 50 -74 0
1.0 -97 38 0
1.0 92 -43 0
1.0 30 139 0
1.0 34 69 0
1.0 -164 130 0
1.0 57 -23 0
1.0 -120 -175 0
1.0 -48 -200 0
1.0 -38 -114 0
1.0 156 -36 0
1.0 174 114 0
1.0 183 -104 0
1.0 33 156 0
1.0 -179 121 0
1.0 95 -179 0
1.0 179 33 0
1.0 -147 -82 0
1.0 117 198 0
1.0 111 127 0
1.0 30 152 0
1.0 -107 67 0
1.0 -187 143 0
1.0 122 -50 0
1.0 -83 112 0
1.0 -193 -64 0
1.0 -61 -18 0
1.0 144 -98 0
1.0 50 -105 0
1.0 172 -186 0
1.0 129 24 0
1.0 -74 -65 0
1.0 -176 -67 0
1.0 131 -115 0
1.0 -133 78 0
1.0 176 28 0
1.0 -133 -84 0
1.0 69 -21 0
1.0 45 -101 0
1.0 166 -197 0
1.0 -64 -57 0
1.0 -172 -188 0
1.0 -66 148 0
1.0 176 -28 0
1.0 112 -47 0
1.0 -68 -73 0
1.0 174 -25 0
1.0 22 101 0
1.0 158 -189 0
1.0 176 64 0
1.0 -12 82 0
1.0 -147 -96 0
1.0 108 -132 0
1.0 -109 -171 0
1.0 -200 -93 0
1.0 172 -39 0
1.0 -118 -187 0
1.0 -19 175 0
1.0 56 182 0
1.0 -78 -20 0
1.0 -151 55 0
1.0 -26 118 0
1.0 -10 -147 0
1.0 -185 -184 0
1.0 170 -75 0
1.0 50 -78 0
1.0 -59 -89 0
1.0 -109 104 0
1.0 -158 -85 0
1.0 3 111 0
1.0 -58 134 0
1.0 -118 134 0
1.0 9 29 0
1.0 -107 -95 0
1.0 -184 72 0
1.0 -175 -23 0
1.0 -108 -70 0
1.0 -181 126 0
1.0 60 -116 0
1.0 50 25 0
1.0 -54 -139 0
1.0 -34 82 0
1.0 -153 -27 0
1.0 50 -60 0
1.0 129 -178 0
1.0 -103 -189 0
1.0 -105 -27 0
1.0 51 -2 0
1.0 141 -130 0
1.0 -11 -190 0
1.0 17 100 0
1.0 160 153 0
1.0 -130 88 0
1.0 -76 -144 0
1.0 -170 133 0
1.0 -135 146 0
1.0 76 188 0
1.0 178 -41 0
1.0 141 59 0
1.0 81 -188 0
1.0 184 -54 0
1.0 49 -23 0
1.0 -156 -117 0
1.0 -41 190 0
1.0 40 62 0
1.0 111 199 0
1.0 -58 -120 0
1.0 -107 165 0
1.0 18 149 0
1.0 171 -114 0
1.0 31 163 0
1.0 153 -4 0
1.0 66 -104 0
1.0 103 -92 0
1.0 12 -169 0
1.0 133 -4 0
1.0 152 -27 0
1.0 141 -64 0
1.0 27 -76 0
1.0 -79 -140 0
1.0 -44 -41 0
1.0 -133 -146 0
1.0 114 5 0
1.0 -8 -71 0
1.0 98 14 0
1.0 78 -130 0
1.0 5 50 0
1.0 189 52 0
1.0 -93 147 0
1.0 -93 85 0
1.0 89 31 0
1.0 101 -50 0
1.0 64 -137 0
1.0 66 45 0
1.0 -94 127 0
1.0 -178 181 0
1.0 128 92 0
1.0 176 64 0
1.0 -94 -78 0
1.0 -128 -16 0
1.0 -152 29 0
1.0 74 -177 0
1.0 103 41 0
1.0 -22 -163 0
1.0 -54 46 0
1.0 109 193 0
1.0 -71 -54 0
1.0 -69 190 0
1.0 18 121 0
1.0 97 -126 0
1.0 167 -107 0
1.0 -69 -30 0
1.0 -76 -103 0
1.0 -96 -45 0
1.0 -98 -183 0
1.0 -172 -153 0
1.0 73 -25 0
1.0 -150 -139 0
1.0 -45 -48 0
1.0 78 -39 0
1.0 -142 188 0
1.0 33 -124 0
1.0 106 168 0
1.0 121 -83 0
1.0 -108 147 0
1.0 -85 -131 0
1.0 179 77 0
1.0 116 80 0
1.0 68 146 0
1.0 69 -99 0
1.0 67 -126 0
1.0 -9 -117 0
1.0 -64 -143 0
1.0 74 147 0
1.0 -23 -122 0
1.0 -1 115 0
1.0 -60 -90 0
1.0 -188 198 0
1.0 124 -152 0
1.0 69 -22 0
1.0 164 22 0
1.0 168 -158 0
